PROBLEM NAME: eil51_n5
KNAPSACK DATA TYPE: uncorrelated, similar weights
DIMENSION: 5
NUMBER OF ITEMS: 20
CAPACITY OF KNAPSACK: 1819002
MIN SPEED: 0.1
MAX SPEED: 1
RENTING RATIO: 20.98
EDGE_WEIGHT_TYPE: CEIL_2D
NODE_COORD_SECTION	(INDEX, X, Y):
1	31	32
2	36	16
3	62	63
4	5	6
5	30	15
ITEMS SECTION	(INDEX, PROFIT, WEIGHT, ASSIGNED NODE NUMBER):
1	970	100066	3
2	930	100080	3
3	925	100033	3
4	909	100015	3
5	906	100007	3
6	902	100097	2
7	851	100090	2
8	811	100011	2
9	724	100026	2
10	700	100082	2
11	581	100042	5
12	532	100090	5
13	512	100013	5
14	493	100030	5
15	428	100017	5
16	416	100009	4
17	300	100071	4
18	149	100017	4
19	148	100037	4
20	41	100070	4
